168
10000
1215
5227
4350
1215
1929
330
3798
6562
3438
5400
8635
2916
1919
5666
1134
6802
4468
2976
8785
1832
4692
68
7636
7308
3761
7
407
765
2590
4717
2254
1925
3198
5677
825
9214
3196
5454
26
1435
1184
4342
2986
2701
1002
4361
269
9593
3786
2784
2685
8168
4663
1557
103
2186
2161
9793
4398
2230
6556
1666
1502
1289
3474
1631
5182
7314
2770
250
812
318
8257
9665
277
3635
2793
1478
2316
1544
566
619
790
202
1748
2364
2400
454
2663
293
2601
3585
2271
1902
1198
1768
9175
1365
3036
4899
6164
6214
4342
4334
37
6100
2588
2658
2891
1788
220
4773
1225
9963
3889
1689
9567
3444
335
7367
3959
3723
5227
8866
2537
4485
3989
5308
3572
4654
8274
6159
2633
786
953
4773
580
3469
4598
3841
8522
1793
8212
6368
1702
1339
7014
5231
1146
3619
6111
1182
7412
4328
895
3632
813
1003
181
6041
2830
3416
6444
5077
2087
3136
9750
7410
